\ This file has been generated by DOcplex
\ ENCODING=ISO-8859-1
\Problem name: dectiger problem

Minimize
 obj: V
Subject To
 c1: V + 18.053054176559 a1_0 + 88.222749838118 a1_1 + 88.222749838118 a1_2 >= 
     0
 c2: V + 88.222749838118 a1_0 + 57.222749838118 a1_1 + 142.222749838118 a1_2
      >= 0
 c3: V + 88.222749838118 a1_0 + 142.222749838118 a1_1 + 57.222749838118 a1_2
      >= 0
 c4: a1_0 + a1_1 + a1_2 = 1

Bounds
       a1_0 <= 1
       a1_1 <= 1
       a1_2 <= 1
       V Free
End
